c FILE /home/rafael/Documents/HappySet/MIHS/inputs/happygen/output/graph_scale_free_k7_p0.5_v100_20241127_083904.txt
c SOURCE This is a scale-free graph formed for the happy graph colouring problem.
c DESCRIPTION It was generated using the problem generator of Rhyd Lewis
c
c GRAPH STATS
c Seed                             = -926138502
c Number of Nodes                  = 100
c Number of colours k              = 7
c Number of pre-assignments        = 50
c Number of links per new node     = 5
c Density                          = 0.0979798
c 
c The degrees of nodes 1 to 100, respectively, are as follows 
c [31, 29, 28, 27, 27, 27, 26, 21, 20, 20, 20, 19, 19, 18, 18, 16, 15, 14, 14, 14, 13, 13, 12, 12, 12, 11, 
c  10, 10, 9, 9, 9, 9, 9, 9, 9, 8, 8, 8, 8, 8, 8, 7, 7, 7, 7, 7, 7, 7, 7, 7, 7, 
c  7, 7, 7, 7, 7, 6, 6, 6, 6, 6, 6, 6, 6, 6, 6, 6, 6, 6, 6, 6, 6, 6, 6, 5, 5, 
c  5, 5, 5, 5, 5, 5, 5, 5, 5, 5, 5, 5, 5, 5, 5, 5, 5, 5, 5, 5, 5, 5, 5, 5] 
c  
p edge 100 485 7
e 1 2
e 1 3
e 1 4
e 1 5
e 1 6
e 1 7
e 1 8
e 1 9
e 1 12
e 1 13
e 1 14
e 1 16
e 1 18
e 1 19
e 1 21
e 1 29
e 1 30
e 1 31
e 1 36
e 1 38
e 1 39
e 1 50
e 1 52
e 1 62
e 1 63
e 1 65
e 1 75
e 1 78
e 1 90
e 1 91
e 1 93
e 2 4
e 2 5
e 2 6
e 2 7
e 2 11
e 2 17
e 2 18
e 2 19
e 2 30
e 2 32
e 2 33
e 2 48
e 2 50
e 2 55
e 2 57
e 2 67
e 2 68
e 2 70
e 2 71
e 2 72
e 2 77
e 2 78
e 2 82
e 2 87
e 2 88
e 2 89
e 2 93
e 2 97
e 3 4
e 3 5
e 3 6
e 3 7
e 3 8
e 3 12
e 3 13
e 3 14
e 3 19
e 3 20
e 3 23
e 3 28
e 3 29
e 3 33
e 3 35
e 3 36
e 3 40
e 3 43
e 3 46
e 3 50
e 3 54
e 3 69
e 3 75
e 3 76
e 3 80
e 3 87
e 3 95
e 4 7
e 4 8
e 4 9
e 4 11
e 4 12
e 4 14
e 4 15
e 4 16
e 4 17
e 4 22
e 4 29
e 4 30
e 4 31
e 4 32
e 4 34
e 4 36
e 4 38
e 4 59
e 4 60
e 4 61
e 4 75
e 4 79
e 4 81
e 4 96
e 5 7
e 5 8
e 5 9
e 5 10
e 5 13
e 5 14
e 5 18
e 5 20
e 5 21
e 5 25
e 5 29
e 5 33
e 5 40
e 5 41
e 5 42
e 5 52
e 5 56
e 5 64
e 5 65
e 5 75
e 5 76
e 5 79
e 5 91
e 5 95
e 6 7
e 6 8
e 6 10
e 6 11
e 6 12
e 6 14
e 6 15
e 6 18
e 6 19
e 6 21
e 6 24
e 6 38
e 6 42
e 6 43
e 6 44
e 6 46
e 6 47
e 6 48
e 6 52
e 6 73
e 6 77
e 6 80
e 6 81
e 6 96
e 7 8
e 7 11
e 7 14
e 7 15
e 7 16
e 7 19
e 7 23
e 7 31
e 7 32
e 7 40
e 7 45
e 7 46
e 7 47
e 7 48
e 7 51
e 7 57
e 7 67
e 7 81
e 7 84
e 7 95
e 8 14
e 8 15
e 8 16
e 8 18
e 8 22
e 8 28
e 8 31
e 8 35
e 8 45
e 8 59
e 8 60
e 8 72
e 8 77
e 8 90
e 8 92
e 9 10
e 9 14
e 9 17
e 9 19
e 9 25
e 9 27
e 9 37
e 9 44
e 9 49
e 9 54
e 9 58
e 9 61
e 9 66
e 9 70
e 9 82
e 9 85
e 9 90
e 10 17
e 10 20
e 10 21
e 10 22
e 10 23
e 10 24
e 10 28
e 10 29
e 10 30
e 10 37
e 10 43
e 10 76
e 10 78
e 10 82
e 10 84
e 10 86
e 10 92
e 11 12
e 11 13
e 11 24
e 11 26
e 11 37
e 11 44
e 11 54
e 11 56
e 11 57
e 11 58
e 11 63
e 11 64
e 11 74
e 11 78
e 11 83
e 11 96
e 12 15
e 12 17
e 12 24
e 12 27
e 12 30
e 12 40
e 12 43
e 12 45
e 12 57
e 12 59
e 12 63
e 12 65
e 12 76
e 12 81
e 13 25
e 13 26
e 13 33
e 13 38
e 13 40
e 13 47
e 13 51
e 13 55
e 13 57
e 13 62
e 13 66
e 13 68
e 13 85
e 13 87
e 13 100
e 14 15
e 14 26
e 14 27
e 14 34
e 14 37
e 14 38
e 14 42
e 14 47
e 14 48
e 14 53
e 15 16
e 15 21
e 15 32
e 15 36
e 15 37
e 15 41
e 15 42
e 15 49
e 15 59
e 15 67
e 15 73
e 15 99
e 16 21
e 16 26
e 16 27
e 16 28
e 16 32
e 16 39
e 16 51
e 16 73
e 16 77
e 16 83
e 16 94
e 17 23
e 17 27
e 17 41
e 17 46
e 17 53
e 17 56
e 17 62
e 17 75
e 17 80
e 17 85
e 18 20
e 18 29
e 18 36
e 18 43
e 18 44
e 18 55
e 18 58
e 18 73
e 18 83
e 19 22
e 19 26
e 19 39
e 19 48
e 19 56
e 19 58
e 19 61
e 19 89
e 20 22
e 20 34
e 20 39
e 20 53
e 20 63
e 20 69
e 20 79
e 20 86
e 20 90
e 20 93
e 21 22
e 21 23
e 21 26
e 21 39
e 21 51
e 21 66
e 21 91
e 22 31
e 22 35
e 22 49
e 22 60
e 22 65
e 22 85
e 22 94
e 23 33
e 23 45
e 23 54
e 23 68
e 23 77
e 23 78
e 23 84
e 24 37
e 24 41
e 24 50
e 24 60
e 24 64
e 24 80
e 24 93
e 24 99
e 25 46
e 25 61
e 25 66
e 25 69
e 25 70
e 25 71
e 25 72
e 25 91
e 25 97
e 26 62
e 26 64
e 26 74
e 26 92
e 26 96
e 27 34
e 27 71
e 27 73
e 27 94
e 27 97
e 28 31
e 28 46
e 28 63
e 28 65
e 28 69
e 28 98
e 29 45
e 29 58
e 29 68
e 30 42
e 30 97
e 30 99
e 30 100
e 31 35
e 31 76
e 31 88
e 32 35
e 32 49
e 32 69
e 32 71
e 33 49
e 33 52
e 33 72
e 33 100
e 34 39
e 34 68
e 34 82
e 34 87
e 34 98
e 35 50
e 35 54
e 35 84
e 35 86
e 36 55
e 36 82
e 36 85
e 37 83
e 37 98
e 38 44
e 38 61
e 38 98
e 39 64
e 39 89
e 40 47
e 40 52
e 40 61
e 41 56
e 41 58
e 41 94
e 41 100
e 42 59
e 42 60
e 43 95
e 43 98
e 44 67
e 44 74
e 45 62
e 45 70
e 46 74
e 47 55
e 47 79
e 48 72
e 48 83
e 49 53
e 49 67
e 50 81
e 50 95
e 51 62
e 51 70
e 51 87
e 52 53
e 52 94
e 53 91
e 53 92
e 54 86
e 54 90
e 55 89
e 55 92
e 56 96
e 56 99
e 57 74
e 59 79
e 60 66
e 63 80
e 64 71
e 65 88
e 66 89
e 67 86
e 68 84
e 69 99
e 70 97
e 71 88
e 72 93
e 73 88
e 74 100
n 10 1
n 18 3
n 23 1
n 26 2
n 31 1
n 38 3
n 39 5
n 40 4
n 42 4
n 44 3
n 46 4
n 48 3
n 49 3
n 50 6
n 52 4
n 54 1
n 55 3
n 56 7
n 57 7
n 58 3
n 59 4
n 62 2
n 63 7
n 65 7
n 66 3
n 67 3
n 68 1
n 69 4
n 70 3
n 71 2
n 73 3
n 75 3
n 76 1
n 77 1
n 78 1
n 79 4
n 80 7
n 81 6
n 82 1
n 83 3
n 84 1
n 85 5
n 87 6
n 90 1
n 91 2
n 93 1
n 94 4
n 95 6
n 97 3
n 100 4
